Route #1: 1 31 24 18 11 40 37 2 35 28 1
Route #2: 1 6 42 44 23 22 9 7 13 30 17 12 27 1
Route #3: 1 39 32 4 21 36 25 8 45 19 15 1
Route #4: 1 26 20 34 5 41 43 29 14 1
Route #5: 1 38 33 16 3 10 1
cost 876
